n = 50;
C = 240;
w = [371,476,306,182,107,39,450,301,157,275,136,184,314,320,325,396,366,452,78,7,272,93,404,472,143,53,88,436,347,114,392,310,213,110,107,500,31,97,221,403,245,81,85,371,309,1,345,321,144,67];
p = [395,427,337,212,125,44,469,264,155,300,163,158,316,333,371,366,360,464,88,-26,252,74,426,468,186,53,100,439,336,142,376,318,182,84,137,534,13,73,269,397,242,76,55,348,348,27,314,311,116,43];
